(set-logic ALL)
(declare-const nth_VAR Int)
(assert (not (<= nth_VAR 0)))
(assert (> nth_VAR 0))
(assert (> nth_VAR 1))
(assert (> nth_VAR 2))
(assert (> nth_VAR 2))
(assert (> nth_VAR 3))
(assert (> nth_VAR 3))
(assert (> nth_VAR 4))
(assert (> nth_VAR 4))
(assert (> nth_VAR 4))
(assert (> nth_VAR 4))
(assert (> nth_VAR 5))
(assert (> nth_VAR 5))
(assert (> nth_VAR 6))
(assert (> nth_VAR 6))
(assert (> nth_VAR 6))
(assert (> nth_VAR 6))
(assert (> nth_VAR 7))
(assert (> nth_VAR 7))
(assert (> nth_VAR 8))
(assert (> nth_VAR 8))
(assert (> nth_VAR 8))
(assert (> nth_VAR 8))
(assert (> nth_VAR 9))
(assert (> nth_VAR 9))
(assert (> nth_VAR 9))
(assert (> nth_VAR 9))
(assert (> nth_VAR 9))
(assert (> nth_VAR 9))
(assert (> nth_VAR 10))
(assert (> nth_VAR 10))
(assert (> nth_VAR 11))
(assert (> nth_VAR 11))
(assert (> nth_VAR 11))
(assert (> nth_VAR 11))
(assert (> nth_VAR 11))
(assert (> nth_VAR 11))
(assert (> nth_VAR 12))
(assert (> nth_VAR 12))
(assert (> nth_VAR 12))
(assert (> nth_VAR 12))
(assert (> nth_VAR 13))
(assert (> nth_VAR 13))
(assert (> nth_VAR 14))
(assert (> nth_VAR 14))
(assert (> nth_VAR 14))
(assert (> nth_VAR 14))
(assert (> nth_VAR 15))
(assert (> nth_VAR 15))
(assert (> nth_VAR 15))
(assert (> nth_VAR 15))
(assert (> nth_VAR 15))
(assert (> nth_VAR 15))
(assert (> nth_VAR 16))
(assert (> nth_VAR 16))
(assert (> nth_VAR 16))
(assert (> nth_VAR 16))
(assert (> nth_VAR 16))
(assert (> nth_VAR 16))
(assert (> nth_VAR 17))
(assert (> nth_VAR 17))
(assert (> nth_VAR 18))
(assert (> nth_VAR 18))
(assert (> nth_VAR 18))
(assert (> nth_VAR 18))
(assert (> nth_VAR 18))
(assert (> nth_VAR 18))
(assert (> nth_VAR 19))
(assert (> nth_VAR 19))
(assert (> nth_VAR 19))
(assert (> nth_VAR 19))
(assert (> nth_VAR 20))
(assert (> nth_VAR 20))
(assert (> nth_VAR 21))
(assert (> nth_VAR 21))
(assert (> nth_VAR 21))
(assert (> nth_VAR 21))
(assert (> nth_VAR 21))
(assert (> nth_VAR 21))
(assert (> nth_VAR 22))
(assert (> nth_VAR 22))
(assert (> nth_VAR 22))
(assert (> nth_VAR 22))
(assert (> nth_VAR 23))
(assert (> nth_VAR 23))
(assert (> nth_VAR 23))
(assert (> nth_VAR 23))
(assert (> nth_VAR 23))
(assert (> nth_VAR 23))
(assert (> nth_VAR 24))
(assert (> nth_VAR 24))
(assert (> nth_VAR 24))
(assert (> nth_VAR 24))
(assert (> nth_VAR 24))
(assert (> nth_VAR 24))
(assert (> nth_VAR 24))
(assert (> nth_VAR 24))
(assert (> nth_VAR 25))
(assert (> nth_VAR 25))
(assert (> nth_VAR 25))
(assert (> nth_VAR 25))
(assert (> nth_VAR 26))
(assert (> nth_VAR 26))
(assert (> nth_VAR 27))
(assert (> nth_VAR 27))
(assert (> nth_VAR 27))
(assert (> nth_VAR 27))
(assert (> nth_VAR 28))
(assert (> nth_VAR 28))
(assert (> nth_VAR 29))
(assert (> nth_VAR 29))
(assert (> nth_VAR 29))
(assert (> nth_VAR 29))
(assert (> nth_VAR 30))
(assert (> nth_VAR 30))
(assert (> nth_VAR 30))
(assert (> nth_VAR 30))
(assert (> nth_VAR 30))
(assert (> nth_VAR 30))
(assert (> nth_VAR 30))
(assert (> nth_VAR 30))
(assert (> nth_VAR 30))
(assert (> nth_VAR 30))
(assert (> nth_VAR 30))
(assert (> nth_VAR 30))
(assert (> nth_VAR 30))
(assert (> nth_VAR 30))
(assert (> nth_VAR 31))
(assert (> nth_VAR 31))
(assert (> nth_VAR 31))
(assert (> nth_VAR 31))
(assert (> nth_VAR 32))
(assert (> nth_VAR 32))
(assert (> nth_VAR 32))
(assert (> nth_VAR 32))
(assert (> nth_VAR 32))
(assert (> nth_VAR 32))
(assert (> nth_VAR 33))
(assert (> nth_VAR 33))
(assert (> nth_VAR 34))
(assert (> nth_VAR 34))
(assert (> nth_VAR 34))
(assert (> nth_VAR 34))
(assert (> nth_VAR 34))
(assert (> nth_VAR 34))
(assert (> nth_VAR 34))
(assert (> nth_VAR 34))
(assert (> nth_VAR 34))
(assert (> nth_VAR 34))
(assert (> nth_VAR 35))
(assert (> nth_VAR 35))
(assert (> nth_VAR 36))
(assert (> nth_VAR 36))
(assert (> nth_VAR 36))
(assert (> nth_VAR 36))
(assert (> nth_VAR 36))
(assert (> nth_VAR 36))
(assert (> nth_VAR 37))
(assert (> nth_VAR 37))
(assert (> nth_VAR 37))
(assert (> nth_VAR 37))
(assert (> nth_VAR 37))
(assert (> nth_VAR 37))
(assert (> nth_VAR 38))
(assert (> nth_VAR 38))
(assert (> nth_VAR 38))
(assert (> nth_VAR 38))
(assert (> nth_VAR 39))
(assert (> nth_VAR 39))
(assert (> nth_VAR 39))
(assert (> nth_VAR 39))
(assert (> nth_VAR 39))
(assert (> nth_VAR 39))
(assert (> nth_VAR 40))
(assert (> nth_VAR 40))
(assert (> nth_VAR 40))
(assert (> nth_VAR 40))
(assert (> nth_VAR 40))
(assert (> nth_VAR 40))
(assert (> nth_VAR 41))
(assert (> nth_VAR 41))
(assert (> nth_VAR 42))
(assert (> nth_VAR 42))
(assert (> nth_VAR 42))
(assert (> nth_VAR 42))
(assert (> nth_VAR 42))
(assert (> nth_VAR 42))
(assert (> nth_VAR 42))
(assert (> nth_VAR 42))
(assert (> nth_VAR 42))
(assert (> nth_VAR 42))
(assert (> nth_VAR 43))
(assert (> nth_VAR 43))
(assert (> nth_VAR 44))
(assert (> nth_VAR 44))
(assert (> nth_VAR 44))
(assert (> nth_VAR 44))
(assert (> nth_VAR 45))
(assert (> nth_VAR 45))
(assert (> nth_VAR 46))
(assert (> nth_VAR 46))
(assert (> nth_VAR 46))
(assert (> nth_VAR 46))
(assert (> nth_VAR 46))
(assert (> nth_VAR 46))
(assert (> nth_VAR 46))
(assert (> nth_VAR 46))
(assert (> nth_VAR 46))
(assert (> nth_VAR 46))
(assert (> nth_VAR 46))
(assert (> nth_VAR 46))
(assert (> nth_VAR 47))
(assert (> nth_VAR 47))
(assert (> nth_VAR 47))
(assert (> nth_VAR 47))
(assert (> nth_VAR 47))
(assert (> nth_VAR 47))
(assert (> nth_VAR 47))
(assert (> nth_VAR 47))
(assert (> nth_VAR 47))
(assert (> nth_VAR 47))
(assert (> nth_VAR 47))
(assert (> nth_VAR 47))
(assert (> nth_VAR 48))
(assert (> nth_VAR 48))
(assert (> nth_VAR 48))
(assert (> nth_VAR 48))
(assert (> nth_VAR 49))
(assert (> nth_VAR 49))
(assert (> nth_VAR 50))
(assert (> nth_VAR 50))
(assert (> nth_VAR 50))
(assert (> nth_VAR 50))
(assert (> nth_VAR 51))
(assert (> nth_VAR 51))
(assert (> nth_VAR 51))
(assert (> nth_VAR 51))
(assert (> nth_VAR 51))
(assert (> nth_VAR 51))
(assert (> nth_VAR 52))
(assert (> nth_VAR 52))
(assert (> nth_VAR 53))
(assert (> nth_VAR 53))
(assert (> nth_VAR 53))
(assert (> nth_VAR 53))
(assert (> nth_VAR 53))
(assert (> nth_VAR 53))
(assert (> nth_VAR 53))
(assert (> nth_VAR 53))
(assert (> nth_VAR 53))
(assert (> nth_VAR 53))
(assert (> nth_VAR 54))
(assert (> nth_VAR 54))
(assert (> nth_VAR 54))
(assert (> nth_VAR 54))
(assert (> nth_VAR 54))
(assert (> nth_VAR 54))
(assert (> nth_VAR 55))
(assert (> nth_VAR 55))
(assert (> nth_VAR 55))
(assert (> nth_VAR 55))
(assert (> nth_VAR 55))
(assert (> nth_VAR 55))
(assert (> nth_VAR 56))
(assert (> nth_VAR 56))
(assert (> nth_VAR 56))
(assert (> nth_VAR 56))
(assert (> nth_VAR 56))
(assert (> nth_VAR 56))
(assert (> nth_VAR 57))
(assert (> nth_VAR 57))
(assert (> nth_VAR 58))
(assert (> nth_VAR 58))
(assert (> nth_VAR 58))
(assert (> nth_VAR 58))
(assert (> nth_VAR 58))
(assert (> nth_VAR 58))
(assert (> nth_VAR 59))
(assert (> nth_VAR 59))
(assert (> nth_VAR 59))
(assert (> nth_VAR 59))
(assert (> nth_VAR 60))
(assert (> nth_VAR 60))
(assert (> nth_VAR 61))
(assert (> nth_VAR 61))
(assert (> nth_VAR 61))
(assert (> nth_VAR 61))
(assert (> nth_VAR 61))
(assert (> nth_VAR 61))
(assert (> nth_VAR 61))
(assert (> nth_VAR 61))
(assert (> nth_VAR 61))
(assert (> nth_VAR 61))
(assert (> nth_VAR 62))
(assert (> nth_VAR 62))
(assert (> nth_VAR 62))
(assert (> nth_VAR 62))
(assert (> nth_VAR 62))
(assert (> nth_VAR 62))
(assert (> nth_VAR 62))
(assert (> nth_VAR 62))
(assert (> nth_VAR 62))
(assert (> nth_VAR 62))
(assert (> nth_VAR 62))
(assert (> nth_VAR 62))
(assert (> nth_VAR 62))
(assert (> nth_VAR 62))
(assert (> nth_VAR 63))
(assert (> nth_VAR 63))
(assert (> nth_VAR 63))
(assert (> nth_VAR 63))
(assert (> nth_VAR 64))
(assert (> nth_VAR 64))
(assert (> nth_VAR 65))
(assert (> nth_VAR 65))
(assert (> nth_VAR 65))
(assert (> nth_VAR 65))
(assert (> nth_VAR 66))
(assert (> nth_VAR 66))
(assert (> nth_VAR 66))
(assert (> nth_VAR 66))
(assert (> nth_VAR 66))
(assert (> nth_VAR 66))
(assert (> nth_VAR 66))
(assert (> nth_VAR 66))
(assert (> nth_VAR 66))
(assert (> nth_VAR 66))
(assert (> nth_VAR 66))
(assert (> nth_VAR 66))
(assert (> nth_VAR 66))
(assert (> nth_VAR 66))
(assert (> nth_VAR 67))
(assert (> nth_VAR 67))
(assert (> nth_VAR 67))
(assert (> nth_VAR 67))
(assert (> nth_VAR 67))
(assert (> nth_VAR 67))
(assert (> nth_VAR 68))
(assert (> nth_VAR 68))
(assert (> nth_VAR 68))
(assert (> nth_VAR 68))
(assert (> nth_VAR 68))
(assert (> nth_VAR 68))
(assert (> nth_VAR 68))
(assert (> nth_VAR 68))
(assert (> nth_VAR 68))
(assert (> nth_VAR 68))
(assert (> nth_VAR 69))
(assert (> nth_VAR 69))
(assert (> nth_VAR 70))
(assert (> nth_VAR 70))
(assert (> nth_VAR 70))
(assert (> nth_VAR 70))
(assert (> nth_VAR 71))
(assert (> nth_VAR 71))
(assert (> nth_VAR 71))
(assert (> nth_VAR 71))
(assert (> nth_VAR 71))
(assert (> nth_VAR 71))
(assert (> nth_VAR 72))
(assert (> nth_VAR 72))
(assert (> nth_VAR 72))
(assert (> nth_VAR 72))
(assert (> nth_VAR 72))
(assert (> nth_VAR 72))
(assert (> nth_VAR 72))
(assert (> nth_VAR 72))
(assert (> nth_VAR 73))
(assert (> nth_VAR 73))
(assert (> nth_VAR 73))
(assert (> nth_VAR 73))
(assert (> nth_VAR 73))
(assert (> nth_VAR 73))
(assert (> nth_VAR 74))
(assert (> nth_VAR 74))
(assert (> nth_VAR 74))
(assert (> nth_VAR 74))
(assert (> nth_VAR 74))
(assert (> nth_VAR 74))
(assert (> nth_VAR 75))
(assert (> nth_VAR 75))
(assert (> nth_VAR 75))
(assert (> nth_VAR 75))
(assert (> nth_VAR 76))
(assert (> nth_VAR 76))
(assert (> nth_VAR 76))
(assert (> nth_VAR 76))
(assert (> nth_VAR 76))
(assert (> nth_VAR 76))
(assert (> nth_VAR 77))
(assert (> nth_VAR 77))
(assert (> nth_VAR 77))
(assert (> nth_VAR 77))
(assert (> nth_VAR 77))
(assert (> nth_VAR 77))
(assert (> nth_VAR 77))
(assert (> nth_VAR 77))
(assert (> nth_VAR 78))
(assert (> nth_VAR 78))
(assert (> nth_VAR 78))
(assert (> nth_VAR 78))
(assert (> nth_VAR 79))
(assert (> nth_VAR 79))
(assert (> nth_VAR 79))
(assert (> nth_VAR 79))
(assert (> nth_VAR 79))
(assert (> nth_VAR 79))
(assert (> nth_VAR 79))
(assert (> nth_VAR 79))
(assert (> nth_VAR 80))
(assert (> nth_VAR 80))
(assert (> nth_VAR 80))
(assert (> nth_VAR 80))
(assert (> nth_VAR 80))
(assert (> nth_VAR 80))
(assert (> nth_VAR 80))
(assert (> nth_VAR 80))
(assert (> nth_VAR 80))
(assert (> nth_VAR 80))
(assert (> nth_VAR 81))
(assert (> nth_VAR 81))
(assert (> nth_VAR 82))
(assert (> nth_VAR 82))
(assert (> nth_VAR 82))
(assert (> nth_VAR 82))
(assert (> nth_VAR 82))
(assert (> nth_VAR 82))
(assert (> nth_VAR 82))
(assert (> nth_VAR 82))
(assert (> nth_VAR 82))
(assert (> nth_VAR 82))
(assert (> nth_VAR 83))
(assert (> nth_VAR 83))
(assert (> nth_VAR 84))
(assert (> nth_VAR 84))
(assert (> nth_VAR 84))
(assert (> nth_VAR 84))
(assert (> nth_VAR 84))
(assert (> nth_VAR 84))
(assert (> nth_VAR 85))
(assert (> nth_VAR 85))
(assert (> nth_VAR 85))
(assert (> nth_VAR 85))
(assert (> nth_VAR 86))
(assert (> nth_VAR 86))
(assert (> nth_VAR 86))
(assert (> nth_VAR 86))
(assert (> nth_VAR 86))
(assert (> nth_VAR 86))
(assert (> nth_VAR 87))
(assert (> nth_VAR 87))
(assert (> nth_VAR 87))
(assert (> nth_VAR 87))
(assert (> nth_VAR 87))
(assert (> nth_VAR 87))
(assert (> nth_VAR 87))
(assert (> nth_VAR 87))
(assert (> nth_VAR 88))
(assert (> nth_VAR 88))
(assert (> nth_VAR 88))
(assert (> nth_VAR 88))
(assert (> nth_VAR 89))
(assert (> nth_VAR 89))
(assert (> nth_VAR 90))
(assert (> nth_VAR 90))
(assert (> nth_VAR 90))
(assert (> nth_VAR 90))
(assert (> nth_VAR 91))
(assert (> nth_VAR 91))
(assert (> nth_VAR 91))
(assert (> nth_VAR 91))
(assert (> nth_VAR 91))
(assert (> nth_VAR 91))
(assert (> nth_VAR 91))
(assert (> nth_VAR 91))
(assert (> nth_VAR 91))
(assert (> nth_VAR 91))
(assert (> nth_VAR 91))
(assert (> nth_VAR 91))
(assert (> nth_VAR 92))
(assert (> nth_VAR 92))
(assert (> nth_VAR 92))
(assert (> nth_VAR 92))
(assert (> nth_VAR 92))
(assert (> nth_VAR 92))
(assert (> nth_VAR 92))
(assert (> nth_VAR 92))
(assert (> nth_VAR 93))
(assert (> nth_VAR 93))
(assert (> nth_VAR 93))
(assert (> nth_VAR 93))
(assert (> nth_VAR 94))
(assert (> nth_VAR 94))
(assert (> nth_VAR 94))
(assert (> nth_VAR 94))
(assert (> nth_VAR 94))
(assert (> nth_VAR 94))
(assert (> nth_VAR 94))
(assert (> nth_VAR 94))
(assert (> nth_VAR 95))
(assert (> nth_VAR 95))
(assert (> nth_VAR 95))
(assert (> nth_VAR 95))
(assert (> nth_VAR 96))
(assert (> nth_VAR 96))
(assert (> nth_VAR 96))
(assert (> nth_VAR 96))
(assert (> nth_VAR 96))
(assert (> nth_VAR 96))
(assert (> nth_VAR 97))
(assert (> nth_VAR 97))
(assert (> nth_VAR 97))
(assert (> nth_VAR 97))
(assert (> nth_VAR 97))
(assert (> nth_VAR 97))
(assert (> nth_VAR 97))
(assert (> nth_VAR 97))
(assert (> nth_VAR 97))
(assert (> nth_VAR 97))
(assert (> nth_VAR 97))
(assert (> nth_VAR 97))
(assert (> nth_VAR 98))
(assert (> nth_VAR 98))
(assert (> nth_VAR 99))
(assert (> nth_VAR 99))
(assert (> nth_VAR 99))
(assert (> nth_VAR 99))
(assert (> nth_VAR 99))
(assert (> nth_VAR 99))
(assert (> nth_VAR 99))
(assert (> nth_VAR 99))
(assert (> nth_VAR 99))
(assert (> nth_VAR 99))
(assert (> nth_VAR 99))
(assert (> nth_VAR 99))
(assert (> nth_VAR 99))
(assert (> nth_VAR 99))
(assert (> nth_VAR 99))
(assert (> nth_VAR 99))
(assert (> nth_VAR 99))
(assert (> nth_VAR 99))
(assert (> nth_VAR 100))
(assert (> nth_VAR 100))
(assert (> nth_VAR 100))
(assert (> nth_VAR 100))
(assert (> nth_VAR 100))
(assert (> nth_VAR 100))
(assert (> nth_VAR 101))
(assert (> nth_VAR 101))
(assert (> nth_VAR 101))
(assert (> nth_VAR 101))
(assert (> nth_VAR 101))
(assert (> nth_VAR 101))
(assert (> nth_VAR 101))
(assert (> nth_VAR 101))
(assert (> nth_VAR 101))
(assert (> nth_VAR 101))
(assert (> nth_VAR 102))
(assert (> nth_VAR 102))
(assert (> nth_VAR 102))
(assert (> nth_VAR 102))
(assert (> nth_VAR 102))
(assert (> nth_VAR 102))
(assert (> nth_VAR 103))
(assert (> nth_VAR 103))
(assert (> nth_VAR 103))
(assert (> nth_VAR 103))
(assert (> nth_VAR 103))
(assert (> nth_VAR 103))
(assert (> nth_VAR 104))
(assert (> nth_VAR 104))
(assert (> nth_VAR 105))
(assert (> nth_VAR 105))
(assert (> nth_VAR 105))
(assert (> nth_VAR 105))
(assert (> nth_VAR 105))
(assert (> nth_VAR 105))
(assert (> nth_VAR 106))
(assert (> nth_VAR 106))
(assert (> nth_VAR 106))
(assert (> nth_VAR 106))
(assert (> nth_VAR 106))
(assert (> nth_VAR 106))
(assert (> nth_VAR 106))
(assert (> nth_VAR 106))
(assert (> nth_VAR 106))
(assert (> nth_VAR 106))
(assert (> nth_VAR 107))
(assert (> nth_VAR 107))
(assert (> nth_VAR 107))
(assert (> nth_VAR 107))
(assert (> nth_VAR 107))
(assert (> nth_VAR 107))
(assert (> nth_VAR 108))
(assert (> nth_VAR 108))
(assert (> nth_VAR 108))
(assert (> nth_VAR 108))
(assert (> nth_VAR 108))
(assert (> nth_VAR 108))
(assert (> nth_VAR 109))
(assert (> nth_VAR 109))
(assert (> nth_VAR 110))
(assert (> nth_VAR 110))
(assert (> nth_VAR 110))
(assert (> nth_VAR 110))
(assert (> nth_VAR 110))
(assert (> nth_VAR 110))
(assert (> nth_VAR 111))
(assert (> nth_VAR 111))
(assert (> nth_VAR 111))
(assert (> nth_VAR 111))
(assert (> nth_VAR 111))
(assert (> nth_VAR 111))
(assert (> nth_VAR 112))
(assert (> nth_VAR 112))
(assert (> nth_VAR 112))
(assert (> nth_VAR 112))
(assert (> nth_VAR 113))
(assert (> nth_VAR 113))
(assert (> nth_VAR 114))
(assert (> nth_VAR 114))
(assert (> nth_VAR 114))
(assert (> nth_VAR 114))
(assert (> nth_VAR 114))
(assert (> nth_VAR 114))
(assert (> nth_VAR 114))
(assert (> nth_VAR 114))
(assert (> nth_VAR 114))
(assert (> nth_VAR 114))
(assert (> nth_VAR 114))
(assert (> nth_VAR 114))
(assert (> nth_VAR 115))
(assert (> nth_VAR 115))
(assert (> nth_VAR 115))
(assert (> nth_VAR 115))
(assert (> nth_VAR 115))
(assert (> nth_VAR 115))
(assert (> nth_VAR 115))
(assert (> nth_VAR 115))
(assert (> nth_VAR 115))
(assert (> nth_VAR 115))
(assert (> nth_VAR 116))
(assert (> nth_VAR 116))
(assert (> nth_VAR 117))
(assert (> nth_VAR 117))
(assert (> nth_VAR 117))
(assert (> nth_VAR 117))
(assert (> nth_VAR 118))
(assert (> nth_VAR 118))
(assert (> nth_VAR 118))
(assert (> nth_VAR 118))
(assert (> nth_VAR 118))
(assert (> nth_VAR 118))
(assert (> nth_VAR 119))
(assert (> nth_VAR 119))
(assert (> nth_VAR 119))
(assert (> nth_VAR 119))
(assert (> nth_VAR 119))
(assert (> nth_VAR 119))
(assert (> nth_VAR 120))
(assert (> nth_VAR 120))
(assert (> nth_VAR 121))
(assert (> nth_VAR 121))
(assert (> nth_VAR 121))
(assert (> nth_VAR 121))
(assert (> nth_VAR 121))
(assert (> nth_VAR 121))
(assert (> nth_VAR 121))
(assert (> nth_VAR 121))
(assert (> nth_VAR 121))
(assert (> nth_VAR 121))
(assert (> nth_VAR 121))
(assert (> nth_VAR 121))
(assert (> nth_VAR 122))
(assert (> nth_VAR 122))
(assert (> nth_VAR 122))
(assert (> nth_VAR 122))
(assert (> nth_VAR 123))
(assert (> nth_VAR 123))
(assert (> nth_VAR 123))
(assert (> nth_VAR 123))
(assert (> nth_VAR 123))
(assert (> nth_VAR 123))
(assert (> nth_VAR 124))
(assert (> nth_VAR 124))
(assert (> nth_VAR 124))
(assert (> nth_VAR 124))
(assert (> nth_VAR 124))
(assert (> nth_VAR 124))
(assert (> nth_VAR 124))
(assert (> nth_VAR 124))
(assert (> nth_VAR 125))
(assert (> nth_VAR 125))
(assert (> nth_VAR 125))
(assert (> nth_VAR 125))
(assert (> nth_VAR 125))
(assert (> nth_VAR 125))
(assert (> nth_VAR 125))
(assert (> nth_VAR 125))
(assert (> nth_VAR 125))
(assert (> nth_VAR 125))
(assert (> nth_VAR 126))
(assert (> nth_VAR 126))
(assert (> nth_VAR 126))
(assert (> nth_VAR 126))
(assert (> nth_VAR 126))
(assert (> nth_VAR 126))
(assert (> nth_VAR 126))
(assert (> nth_VAR 126))
(assert (> nth_VAR 127))
(assert (> nth_VAR 127))
(assert (> nth_VAR 127))
(assert (> nth_VAR 127))
(assert (> nth_VAR 127))
(assert (> nth_VAR 127))
(assert (> nth_VAR 127))
(assert (> nth_VAR 127))
(assert (> nth_VAR 127))
(assert (> nth_VAR 127))
(assert (> nth_VAR 128))
(assert (> nth_VAR 128))
(assert (> nth_VAR 128))
(assert (> nth_VAR 128))
(assert (> nth_VAR 128))
(assert (> nth_VAR 128))
(assert (> nth_VAR 128))
(assert (> nth_VAR 128))
(assert (> nth_VAR 129))
(assert (> nth_VAR 129))
(assert (> nth_VAR 129))
(assert (> nth_VAR 129))
(assert (> nth_VAR 129))
(assert (> nth_VAR 129))
(assert (> nth_VAR 130))
(assert (> nth_VAR 130))
(assert (> nth_VAR 130))
(assert (> nth_VAR 130))
(assert (> nth_VAR 130))
(assert (> nth_VAR 130))
(assert (> nth_VAR 131))
(assert (> nth_VAR 131))
(assert (> nth_VAR 131))
(assert (> nth_VAR 131))
(assert (> nth_VAR 132))
(assert (> nth_VAR 132))
(assert (> nth_VAR 132))
(assert (> nth_VAR 132))
(assert (> nth_VAR 132))
(assert (> nth_VAR 132))
(assert (> nth_VAR 132))
(assert (> nth_VAR 132))
(assert (> nth_VAR 133))
(assert (> nth_VAR 133))
(assert (> nth_VAR 133))
(assert (> nth_VAR 133))
(assert (> nth_VAR 133))
(assert (> nth_VAR 133))
(assert (> nth_VAR 134))
(assert (> nth_VAR 134))
(assert (> nth_VAR 134))
(assert (> nth_VAR 134))
(assert (> nth_VAR 135))
(assert (> nth_VAR 135))
(assert (> nth_VAR 135))
(assert (> nth_VAR 135))
(assert (> nth_VAR 135))
(assert (> nth_VAR 135))
(assert (> nth_VAR 135))
(assert (> nth_VAR 135))
(assert (> nth_VAR 136))
(assert (> nth_VAR 136))
(assert (> nth_VAR 136))
(assert (> nth_VAR 136))
(assert (> nth_VAR 137))
(assert (> nth_VAR 137))
(assert (> nth_VAR 137))
(assert (> nth_VAR 137))
(assert (> nth_VAR 137))
(assert (> nth_VAR 137))
(assert (> nth_VAR 137))
(assert (> nth_VAR 137))
(assert (> nth_VAR 137))
(assert (> nth_VAR 137))
(assert (> nth_VAR 137))
(assert (> nth_VAR 137))
(assert (> nth_VAR 137))
(assert (> nth_VAR 137))
(assert (> nth_VAR 138))
(assert (> nth_VAR 138))
(assert (> nth_VAR 138))
(assert (> nth_VAR 138))
(assert (> nth_VAR 138))
(assert (> nth_VAR 138))
(assert (> nth_VAR 138))
(assert (> nth_VAR 138))
(assert (> nth_VAR 138))
(assert (> nth_VAR 138))
(assert (> nth_VAR 139))
(assert (> nth_VAR 139))
(assert (> nth_VAR 139))
(assert (> nth_VAR 139))
(assert (> nth_VAR 139))
(assert (> nth_VAR 139))
(assert (> nth_VAR 139))
(assert (> nth_VAR 139))
(assert (> nth_VAR 139))
(assert (> nth_VAR 139))
(assert (> nth_VAR 139))
(assert (> nth_VAR 139))
(assert (> nth_VAR 140))
(assert (> nth_VAR 140))
(assert (> nth_VAR 141))
(assert (> nth_VAR 141))
(assert (> nth_VAR 141))
(assert (> nth_VAR 141))
(assert (> nth_VAR 141))
(assert (> nth_VAR 141))
(assert (> nth_VAR 141))
(assert (> nth_VAR 141))
(assert (> nth_VAR 141))
(assert (> nth_VAR 141))
(assert (> nth_VAR 142))
(assert (> nth_VAR 142))
(assert (> nth_VAR 143))
(assert (> nth_VAR 143))
(assert (> nth_VAR 143))
(assert (> nth_VAR 143))
(assert (> nth_VAR 144))
(assert (> nth_VAR 144))
(assert (> nth_VAR 145))
(assert (> nth_VAR 145))
(assert (> nth_VAR 145))
(assert (> nth_VAR 145))
(assert (> nth_VAR 145))
(assert (> nth_VAR 145))
(assert (> nth_VAR 145))
(assert (> nth_VAR 145))
(assert (> nth_VAR 145))
(assert (> nth_VAR 145))
(assert (> nth_VAR 146))
(assert (> nth_VAR 146))
(assert (> nth_VAR 146))
(assert (> nth_VAR 146))
(assert (> nth_VAR 146))
(assert (> nth_VAR 146))
(assert (> nth_VAR 146))
(assert (> nth_VAR 146))
(assert (> nth_VAR 146))
(assert (> nth_VAR 146))
(assert (> nth_VAR 146))
(assert (> nth_VAR 146))
(assert (> nth_VAR 146))
(assert (> nth_VAR 146))
(assert (> nth_VAR 147))
(assert (> nth_VAR 147))
(assert (> nth_VAR 147))
(assert (> nth_VAR 147))
(assert (> nth_VAR 148))
(assert (> nth_VAR 148))
(assert (> nth_VAR 149))
(assert (> nth_VAR 149))
(assert (> nth_VAR 149))
(assert (> nth_VAR 149))
(assert (> nth_VAR 150))
(assert (> nth_VAR 150))
(assert (> nth_VAR 150))
(assert (> nth_VAR 150))
(assert (> nth_VAR 150))
(assert (> nth_VAR 150))
(assert (> nth_VAR 150))
(assert (> nth_VAR 150))
(assert (> nth_VAR 150))
(assert (> nth_VAR 150))
(assert (> nth_VAR 150))
(assert (> nth_VAR 150))
(assert (> nth_VAR 150))
(assert (> nth_VAR 150))
(assert (> nth_VAR 151))
(assert (> nth_VAR 151))
(assert (> nth_VAR 151))
(assert (> nth_VAR 151))
(assert (> nth_VAR 152))
(assert (> nth_VAR 152))
(assert (> nth_VAR 153))
(assert (> nth_VAR 153))
(assert (> nth_VAR 153))
(assert (> nth_VAR 153))
(assert (> nth_VAR 154))
(assert (> nth_VAR 154))
(assert (> nth_VAR 154))
(assert (> nth_VAR 154))
(assert (> nth_VAR 154))
(assert (> nth_VAR 154))
(assert (> nth_VAR 154))
(assert (> nth_VAR 154))
(assert (> nth_VAR 154))
(assert (> nth_VAR 154))
(assert (> nth_VAR 154))
(assert (> nth_VAR 154))
(assert (> nth_VAR 154))
(assert (> nth_VAR 154))
(assert (> nth_VAR 154))
(assert (> nth_VAR 154))
(assert (> nth_VAR 154))
(assert (> nth_VAR 154))
(assert (> nth_VAR 154))
(assert (> nth_VAR 154))
(assert (> nth_VAR 155))
(assert (> nth_VAR 155))
(assert (> nth_VAR 155))
(assert (> nth_VAR 155))
(assert (> nth_VAR 156))
(assert (> nth_VAR 156))
(assert (> nth_VAR 156))
(assert (> nth_VAR 156))
(assert (> nth_VAR 156))
(assert (> nth_VAR 156))
(assert (> nth_VAR 156))
(assert (> nth_VAR 156))
(assert (> nth_VAR 157))
(assert (> nth_VAR 157))
(assert (> nth_VAR 157))
(assert (> nth_VAR 157))
(assert (> nth_VAR 157))
(assert (> nth_VAR 157))
(assert (> nth_VAR 157))
(assert (> nth_VAR 157))
(assert (> nth_VAR 157))
(assert (> nth_VAR 157))
(assert (> nth_VAR 158))
(assert (> nth_VAR 158))
(assert (> nth_VAR 158))
(assert (> nth_VAR 158))
(assert (> nth_VAR 158))
(assert (> nth_VAR 158))
(assert (> nth_VAR 158))
(assert (> nth_VAR 158))
(assert (> nth_VAR 159))
(assert (> nth_VAR 159))
(assert (> nth_VAR 159))
(assert (> nth_VAR 159))
(assert (> nth_VAR 160))
(assert (> nth_VAR 160))
(assert (> nth_VAR 160))
(assert (> nth_VAR 160))
(assert (> nth_VAR 160))
(assert (> nth_VAR 160))
(assert (> nth_VAR 161))
(assert (> nth_VAR 161))
(assert (> nth_VAR 161))
(assert (> nth_VAR 161))
(assert (> nth_VAR 161))
(assert (> nth_VAR 161))
(assert (> nth_VAR 162))
(assert (> nth_VAR 162))
(assert (> nth_VAR 162))
(assert (> nth_VAR 162))
(assert (> nth_VAR 162))
(assert (> nth_VAR 162))
(assert (> nth_VAR 162))
(assert (> nth_VAR 162))
(assert (> nth_VAR 162))
(assert (> nth_VAR 162))
(assert (> nth_VAR 162))
(assert (> nth_VAR 162))
(assert (> nth_VAR 162))
(assert (> nth_VAR 162))
(assert (> nth_VAR 163))
(assert (> nth_VAR 163))
(assert (> nth_VAR 163))
(assert (> nth_VAR 163))
(assert (> nth_VAR 164))
(assert (> nth_VAR 164))
(assert (> nth_VAR 164))
(assert (> nth_VAR 164))
(assert (> nth_VAR 164))
(assert (> nth_VAR 164))
(assert (> nth_VAR 165))
(assert (> nth_VAR 165))
(assert (> nth_VAR 165))
(assert (> nth_VAR 165))
(assert (> nth_VAR 165))
(assert (> nth_VAR 165))
(assert (> nth_VAR 166))
(assert (> nth_VAR 166))
(assert (> nth_VAR 166))
(assert (> nth_VAR 166))
(assert (> nth_VAR 166))
(assert (> nth_VAR 166))
(assert (> nth_VAR 166))
(assert (> nth_VAR 166))
(assert (> nth_VAR 167))
(assert (> nth_VAR 167))
(assert (> nth_VAR 167))
(assert (> nth_VAR 167))
(assert (> nth_VAR 167))
(assert (> nth_VAR 167))
(assert (> nth_VAR 168))
(assert (> nth_VAR 168))
(assert (> nth_VAR 168))
(assert (> nth_VAR 168))
(assert (> nth_VAR 168))
(assert (> nth_VAR 168))
(assert (> nth_VAR 168))
(assert (> nth_VAR 168))
(assert (> nth_VAR 168))
(assert (> nth_VAR 168))
(assert (> nth_VAR 168))
(assert (> nth_VAR 168))
(assert (> nth_VAR 169))
(assert (> nth_VAR 169))
(assert (> nth_VAR 169))
(assert (> nth_VAR 169))
(assert (> nth_VAR 170))
(assert (> nth_VAR 170))
(assert (> nth_VAR 170))
(assert (> nth_VAR 170))
(assert (> nth_VAR 170))
(assert (> nth_VAR 170))
(assert (> nth_VAR 171))
(assert (> nth_VAR 171))
(assert (> nth_VAR 172))
(assert (> nth_VAR 172))
(assert (> nth_VAR 172))
(assert (> nth_VAR 172))
(assert (> nth_VAR 172))
(assert (> nth_VAR 172))
(assert (> nth_VAR 172))
(assert (> nth_VAR 172))
(assert (> nth_VAR 172))
(assert (> nth_VAR 172))
(assert (> nth_VAR 173))
(assert (> nth_VAR 173))
(assert (> nth_VAR 174))
(assert (> nth_VAR 174))
(assert (> nth_VAR 174))
(assert (> nth_VAR 174))
(assert (> nth_VAR 174))
(assert (> nth_VAR 174))
(assert (> nth_VAR 175))
(assert (> nth_VAR 175))
(assert (> nth_VAR 175))
(assert (> nth_VAR 175))
(assert (> nth_VAR 175))
(assert (> nth_VAR 175))
(assert (> nth_VAR 175))
(assert (> nth_VAR 175))
(assert (> nth_VAR 175))
(assert (> nth_VAR 175))
(assert (> nth_VAR 176))
(assert (> nth_VAR 176))
(assert (> nth_VAR 177))
(assert (> nth_VAR 177))
(assert (> nth_VAR 177))
(assert (> nth_VAR 177))
(assert (> nth_VAR 177))
(assert (> nth_VAR 177))
(assert (> nth_VAR 177))
(assert (> nth_VAR 177))
(assert (> nth_VAR 177))
(assert (> nth_VAR 177))
(assert (> nth_VAR 178))
(assert (> nth_VAR 178))
(assert (> nth_VAR 179))
(assert (> nth_VAR 179))
(assert (> nth_VAR 179))
(assert (> nth_VAR 179))
(assert (> nth_VAR 179))
(assert (> nth_VAR 179))
(assert (> nth_VAR 180))
(assert (> nth_VAR 180))
(assert (> nth_VAR 180))
(assert (> nth_VAR 180))
(assert (> nth_VAR 180))
(assert (> nth_VAR 180))
(assert (> nth_VAR 180))
(assert (> nth_VAR 180))
(assert (> nth_VAR 180))
(assert (> nth_VAR 180))
(assert (> nth_VAR 180))
(assert (> nth_VAR 180))
(assert (> nth_VAR 180))
(assert (> nth_VAR 180))
(assert (> nth_VAR 180))
(assert (> nth_VAR 180))
(assert (> nth_VAR 180))
(assert (> nth_VAR 180))
(assert (> nth_VAR 181))
(assert (> nth_VAR 181))
(assert (> nth_VAR 181))
(assert (> nth_VAR 181))
(assert (> nth_VAR 182))
(assert (> nth_VAR 182))
(assert (> nth_VAR 183))
(assert (> nth_VAR 183))
(assert (> nth_VAR 183))
(assert (> nth_VAR 183))
(assert (> nth_VAR 184))
(assert (> nth_VAR 184))
(assert (> nth_VAR 184))
(assert (> nth_VAR 184))
(assert (> nth_VAR 184))
(assert (> nth_VAR 184))
(assert (> nth_VAR 185))
(assert (> nth_VAR 185))
(assert (> nth_VAR 185))
(assert (> nth_VAR 185))
(assert (> nth_VAR 185))
(assert (> nth_VAR 185))
(assert (> nth_VAR 186))
(assert (> nth_VAR 186))
(assert (> nth_VAR 186))
(assert (> nth_VAR 186))
(assert (> nth_VAR 186))
(assert (> nth_VAR 186))
(assert (> nth_VAR 186))
(assert (> nth_VAR 186))
(assert (> nth_VAR 187))
(assert (> nth_VAR 187))
(assert (> nth_VAR 187))
(assert (> nth_VAR 187))
(assert (> nth_VAR 187))
(assert (> nth_VAR 187))
(assert (> nth_VAR 188))
(assert (> nth_VAR 188))
(assert (> nth_VAR 188))
(assert (> nth_VAR 188))
(assert (> nth_VAR 188))
(assert (> nth_VAR 188))
(assert (> nth_VAR 189))
(assert (> nth_VAR 189))
(assert (> nth_VAR 189))
(assert (> nth_VAR 189))
(assert (> nth_VAR 189))
(assert (> nth_VAR 189))
(assert (> nth_VAR 189))
(assert (> nth_VAR 189))
(assert (> nth_VAR 189))
(assert (> nth_VAR 189))
(assert (> nth_VAR 189))
(assert (> nth_VAR 189))
(assert (> nth_VAR 189))
(assert (> nth_VAR 189))
(assert (> nth_VAR 189))
(assert (> nth_VAR 189))
(assert (> nth_VAR 189))
(assert (> nth_VAR 189))
(assert (> nth_VAR 189))
(assert (> nth_VAR 189))
(assert (> nth_VAR 189))
(assert (> nth_VAR 189))
(assert (> nth_VAR 190))
(assert (> nth_VAR 190))
(assert (> nth_VAR 191))
(assert (> nth_VAR 191))
(assert (> nth_VAR 191))
(assert (> nth_VAR 191))
(assert (> nth_VAR 191))
(assert (> nth_VAR 191))
(assert (> nth_VAR 191))
(assert (> nth_VAR 191))
(assert (> nth_VAR 191))
(assert (> nth_VAR 191))
(assert (> nth_VAR 192))
(assert (> nth_VAR 192))
(assert (> nth_VAR 192))
(assert (> nth_VAR 192))
(assert (> nth_VAR 192))
(assert (> nth_VAR 192))
(assert (> nth_VAR 192))
(assert (> nth_VAR 192))
(assert (> nth_VAR 193))
(assert (> nth_VAR 193))
(assert (> nth_VAR 193))
(assert (> nth_VAR 193))
(assert (> nth_VAR 193))
(assert (> nth_VAR 193))
(assert (> nth_VAR 193))
(assert (> nth_VAR 193))
(assert (> nth_VAR 193))
(assert (> nth_VAR 193))
(assert (> nth_VAR 194))
(assert (> nth_VAR 194))
(assert (> nth_VAR 194))
(assert (> nth_VAR 194))
(assert (> nth_VAR 194))
(assert (> nth_VAR 194))
(assert (> nth_VAR 195))
(assert (> nth_VAR 195))
(assert (> nth_VAR 195))
(assert (> nth_VAR 195))
(assert (> nth_VAR 195))
(assert (> nth_VAR 195))
(assert (> nth_VAR 196))
(assert (> nth_VAR 196))
(assert (> nth_VAR 196))
(assert (> nth_VAR 196))
(assert (> nth_VAR 196))
(assert (> nth_VAR 196))
(assert (> nth_VAR 196))
(assert (> nth_VAR 196))
(assert (> nth_VAR 197))
(assert (> nth_VAR 197))
(assert (> nth_VAR 197))
(assert (> nth_VAR 197))
(assert (> nth_VAR 197))
(assert (> nth_VAR 197))
(assert (> nth_VAR 197))
(assert (> nth_VAR 197))
(assert (> nth_VAR 197))
(assert (> nth_VAR 197))
(assert (> nth_VAR 197))
(assert (> nth_VAR 197))
(assert (> nth_VAR 198))
(assert (> nth_VAR 198))
(assert (> nth_VAR 198))
(assert (> nth_VAR 198))
(assert (> nth_VAR 199))
(assert (> nth_VAR 199))
(assert (> nth_VAR 199))
(assert (> nth_VAR 199))
(assert (> nth_VAR 199))
(assert (> nth_VAR 199))
(assert (> nth_VAR 200))
(assert (> nth_VAR 200))
(assert (> nth_VAR 200))
(assert (> nth_VAR 200))
(assert (> nth_VAR 200))
(assert (> nth_VAR 200))
(assert (> nth_VAR 201))
(assert (> nth_VAR 201))
(assert (> nth_VAR 202))
(assert (> nth_VAR 202))
(assert (> nth_VAR 202))
(assert (> nth_VAR 202))
(assert (> nth_VAR 202))
(assert (> nth_VAR 202))
(assert (> nth_VAR 203))
(assert (> nth_VAR 203))
(assert (> nth_VAR 203))
(assert (> nth_VAR 203))
(assert (> nth_VAR 203))
(assert (> nth_VAR 203))
(assert (> nth_VAR 203))
(assert (> nth_VAR 203))
(assert (> nth_VAR 203))
(assert (> nth_VAR 203))
(assert (> nth_VAR 203))
(assert (> nth_VAR 203))
(assert (> nth_VAR 204))
(check-sat)
(get-value (nth_VAR))
